NAME          COPTPROB
OBJSENSE
  MIN
ROWS
 N  __OBJ___
 L  C48     
 L  C62     
 L  C88     
 L  C118    
 L  C125    
 L  C134    
 L  C165    
 L  C183    
COLUMNS
    MARKER    'MARKER'                 'INTORG'
    x30       __OBJ___  871
    x30       C48       -1
    x30       C118      -1
    x44       __OBJ___  255
    x44       C62       -1
    x44       C183      -1
    x110      __OBJ___  138
    x110      C62       -1
    x206      __OBJ___  358
    x206      C125      -1
    x206      C165      -1
    x208      __OBJ___  70
    x208      C48       -1
    x215      __OBJ___  200
    x215      C125      -1
    x215      C183      -1
    x227      __OBJ___  79
    x227      C48       -1
    x227      C88       -1
    x311      __OBJ___  882
    x311      C118      -1
    x311      C134      -1
    x335      __OBJ___  292
    x335      C88       -1
    x335      C165      -1
    x382      __OBJ___  278
    x382      C62       -1
    x382      C134      -1
    MARKER    'MARKER'                 'INTEND'
RHS
    RHS       __OBJ___  -27983
    RHS       C48       -1
    RHS       C62       -1
    RHS       C88       -1
    RHS       C118      -1
    RHS       C125      -1
    RHS       C134      -1
    RHS       C165      -1
    RHS       C183      -1
BOUNDS
 UP BOUND     x30       1
 UP BOUND     x44       1
 UP BOUND     x110      1
 UP BOUND     x206      1
 UP BOUND     x208      1
 UP BOUND     x215      1
 UP BOUND     x227      1
 UP BOUND     x311      1
 UP BOUND     x335      1
 UP BOUND     x382      1
ENDATA
